c ind 10 100 115 15 16 175 2 200 203 23 0
c ind 26 33 34 37 38 50 62 64 66 68 0
c ind 76 9 98 0
p cnf 203 725
-1 2 0
-1 3 0
-101 -102 74 0
-101 102 104 0
-102 103 0
-102 67 0
-103 80 0
-103 89 0
-104 -105 74 0
-104 105 107 0
-105 106 0
-105 67 0
-106 85 0
-106 89 0
-107 -108 90 0
-107 108 110 0
-108 109 0
-108 59 0
-109 -2 68 0
-109 -68 2 0
-11 -12 13 0
-11 12 17 0
-110 -111 112 0
-110 111 54 0
-111 109 0
-111 71 0
-112 -113 54 0
-112 113 74 0
-113 114 97 0
-114 -115 2 0
-114 -2 115 0
-116 -58 27 0
-116 58 117 0
-117 -70 118 0
-117 70 139 0
-118 -28 119 0
-118 28 122 0
-119 -52 120 0
-119 52 122 0
-12 -2 9 0
-12 -9 2 0
-120 -121 0
-121 -2 76 0
-121 -76 2 0
-122 -25 120 0
-122 25 123 0
-123 -58 120 0
-123 58 124 0
-124 -70 125 0
-124 70 127 0
-125 -126 0
-126 -76 76 0
-127 -78 125 0
-127 78 128 0
-128 -83 125 0
-128 83 129 0
-129 -87 130 0
-129 87 132 0
-13 -14 0
-130 -131 0
-131 -16 76 0
-131 -76 16 0
-132 -93 133 0
-132 93 134 0
-133 -96 120 0
-133 96 125 0
-134 -102 125 0
-134 102 135 0
-135 -105 125 0
-135 105 136 0
-136 -108 130 0
-136 108 137 0
-137 -111 138 0
-137 111 120 0
-138 -113 120 0
-138 113 125 0
-139 -78 118 0
-139 78 140 0
-14 -15 16 0
-14 -16 15 0
-140 -83 118 0
-140 83 141 0
-141 -87 142 0
-141 87 163 0
-142 -28 143 0
-142 28 146 0
-143 -52 144 0
-143 52 146 0
-144 -145 0
-145 -16 2 0
-145 -2 16 0
-146 -25 144 0
-146 25 147 0
-147 -58 144 0
-147 58 148 0
-148 -70 149 0
-148 70 151 0
-149 -150 0
-150 -16 76 0
-150 -76 16 0
-151 -78 149 0
-151 78 152 0
-152 -83 149 0
-152 83 153 0
-153 -87 154 0
-153 87 156 0
-154 -155 0
-155 -16 16 0
-156 -93 157 0
-156 93 158 0
-157 -96 144 0
-157 96 149 0
-158 -102 149 0
-158 102 159 0
-159 -105 149 0
-159 105 160 0
-16 0
-160 -108 154 0
-160 108 161 0
-161 -111 162 0
-161 111 144 0
-162 -113 144 0
-162 113 149 0
-163 -93 164 0
-163 93 165 0
-164 -96 27 0
-164 96 118 0
-165 -102 118 0
-165 102 166 0
-166 -105 118 0
-166 105 167 0
-167 -108 142 0
-167 108 168 0
-168 -111 169 0
-168 111 27 0
-169 -113 27 0
-169 113 118 0
-17 -18 0
-170 -171 172 0
-170 171 183 0
-171 -2 23 0
-171 -23 2 0
-172 -28 173 0
-172 28 176 0
-173 -52 174 0
-173 52 176 0
-174 -175 2 0
-174 -2 175 0
-176 -25 174 0
-176 25 177 0
-177 -58 174 0
-177 58 178 0
-178 -70 179 0
-178 70 180 0
-179 -175 76 0
-179 -76 175 0
-18 -15 2 0
-18 -2 15 0
-180 -78 179 0
-180 78 181 0
-181 -83 179 0
-181 83 182 0
-182 -87 183 0
-182 87 184 0
-183 -16 175 0
-183 -175 16 0
-184 -93 185 0
-184 93 186 0
-185 -96 174 0
-185 96 179 0
-186 -102 179 0
-186 102 187 0
-187 -105 179 0
-187 105 188 0
-188 -108 183 0
-188 108 189 0
-189 -111 190 0
-189 111 174 0
-19 -20 0
-190 -113 174 0
-190 113 179 0
-191 -192 194 0
-191 192 195 0
-192 193 122 0
-193 19 21 0
-194 -171 176 0
-194 171 183 0
-195 -196 201 0
-195 196 202 0
-196 197 125 0
-197 19 198 0
-198 -199 0
-199 -200 23 0
-199 -23 200 0
-20 -15 15 0
-201 -171 179 0
-201 171 183 0
-202 -175 203 0
-202 -203 175 0
-21 -22 0
-22 -23 23 0
-24 -25 27 0
-24 25 116 0
-25 -16 26 0
-25 -26 16 0
-27 -28 51 0
-27 28 56 0
-28 29 48 0
-29 -30 39 0
-29 30 46 0
-3 -4 170 0
-3 4 191 0
-30 31 35 0
-31 -32 0
-32 -33 34 0
-32 -34 33 0
-35 -36 0
-36 -37 38 0
-36 -38 37 0
-39 -40 43 0
-39 40 45 0
-4 5 24 0
-40 41 0
-40 42 0
-41 -2 37 0
-41 -37 2 0
-42 -2 33 0
-42 -33 2 0
-43 -44 0
-44 -2 26 0
-44 -26 2 0
-45 -25 0
-46 -47 0
-47 -26 26 0
-48 -49 0
-49 -50 50 0
-5 6 21 0
-51 -52 54 0
-51 52 56 0
-52 -30 53 0
-52 30 25 0
-53 -40 16 0
-53 40 2 0
-54 -55 0
-55 -2 2 0
-56 -25 54 0
-56 25 57 0
-57 -58 54 0
-57 58 69 0
-58 59 0
-58 67 0
-59 60 0
-59 65 0
-6 -7 11 0
-6 7 19 0
-60 61 0
-60 63 0
-61 -16 62 0
-61 -62 16 0
-63 -16 64 0
-63 -64 16 0
-65 -16 66 0
-65 -66 16 0
-67 -16 68 0
-67 -68 16 0
-69 -70 74 0
-69 70 77 0
-7 -8 0
-70 67 0
-70 71 0
-71 65 0
-71 72 0
-72 63 0
-72 73 0
-73 -2 62 0
-73 -62 2 0
-74 -75 0
-75 -2 76 0
-75 -76 2 0
-77 -78 74 0
-77 78 82 0
-78 67 0
-78 79 0
-79 65 0
-79 80 0
-8 -10 9 0
-8 -9 10 0
-80 61 0
-80 81 0
-81 -2 64 0
-81 -64 2 0
-82 -83 74 0
-82 83 86 0
-83 67 0
-83 84 0
-84 65 0
-84 85 0
-85 73 0
-85 81 0
-86 -87 90 0
-86 87 92 0
-87 67 0
-87 88 0
-88 60 0
-88 89 0
-89 -2 66 0
-89 -66 2 0
-90 -91 0
-91 -16 2 0
-91 -2 16 0
-92 -93 95 0
-92 93 101 0
-93 67 0
-93 94 0
-94 72 0
-94 89 0
-95 -96 54 0
-95 96 74 0
-96 97 0
-96 99 0
-97 -2 98 0
-97 -98 2 0
-99 -100 2 0
-99 -2 100 0
1 -2 -3 0
1 0
101 -102 -74 0
101 -74 -104 0
101 102 -104 0
102 -103 -67 0
103 -80 -89 0
104 -105 -74 0
104 -74 -107 0
104 105 -107 0
105 -106 -67 0
106 -85 -89 0
107 -108 -90 0
107 -90 -110 0
107 108 -110 0
108 -59 -109 0
109 -68 -2 0
109 68 2 0
11 -12 -13 0
11 -13 -17 0
11 12 -17 0
110 -111 -112 0
110 -112 -54 0
110 111 -54 0
111 -71 -109 0
112 -113 -54 0
112 -54 -74 0
112 113 -74 0
113 -114 0
113 -97 0
114 -115 -2 0
114 115 2 0
116 -27 -117 0
116 -58 -27 0
116 58 -117 0
117 -118 -139 0
117 -70 -118 0
117 70 -139 0
118 -119 -122 0
118 -28 -119 0
118 28 -122 0
119 -120 -122 0
119 -52 -120 0
119 52 -122 0
12 -9 -2 0
12 9 2 0
120 121 0
121 -76 -2 0
121 76 2 0
122 -120 -123 0
122 -25 -120 0
122 25 -123 0
123 -120 -124 0
123 -58 -120 0
123 58 -124 0
124 -125 -127 0
124 -70 -125 0
124 70 -127 0
125 126 0
126 -76 -76 0
126 76 76 0
127 -125 -128 0
127 -78 -125 0
127 78 -128 0
128 -125 -129 0
128 -83 -125 0
128 83 -129 0
129 -130 -132 0
129 -87 -130 0
129 87 -132 0
13 14 0
130 131 0
131 -76 -16 0
131 76 16 0
132 -133 -134 0
132 -93 -133 0
132 93 -134 0
133 -120 -125 0
133 -96 -120 0
133 96 -125 0
134 -102 -125 0
134 -125 -135 0
134 102 -135 0
135 -105 -125 0
135 -125 -136 0
135 105 -136 0
136 -108 -130 0
136 -130 -137 0
136 108 -137 0
137 -111 -138 0
137 -138 -120 0
137 111 -120 0
138 -113 -120 0
138 -120 -125 0
138 113 -125 0
139 -118 -140 0
139 -78 -118 0
139 78 -140 0
14 -15 -16 0
14 15 16 0
140 -118 -141 0
140 -83 -118 0
140 83 -141 0
141 -142 -163 0
141 -87 -142 0
141 87 -163 0
142 -143 -146 0
142 -28 -143 0
142 28 -146 0
143 -144 -146 0
143 -52 -144 0
143 52 -146 0
144 145 0
145 -16 -2 0
145 16 2 0
146 -144 -147 0
146 -25 -144 0
146 25 -147 0
147 -144 -148 0
147 -58 -144 0
147 58 -148 0
148 -149 -151 0
148 -70 -149 0
148 70 -151 0
149 150 0
150 -16 -76 0
150 16 76 0
151 -149 -152 0
151 -78 -149 0
151 78 -152 0
152 -149 -153 0
152 -83 -149 0
152 83 -153 0
153 -154 -156 0
153 -87 -154 0
153 87 -156 0
154 155 0
155 -16 -16 0
155 16 16 0
156 -157 -158 0
156 -93 -157 0
156 93 -158 0
157 -144 -149 0
157 -96 -144 0
157 96 -149 0
158 -102 -149 0
158 -149 -159 0
158 102 -159 0
159 -105 -149 0
159 -149 -160 0
159 105 -160 0
160 -108 -154 0
160 -154 -161 0
160 108 -161 0
161 -111 -162 0
161 -162 -144 0
161 111 -144 0
162 -113 -144 0
162 -144 -149 0
162 113 -149 0
163 -164 -165 0
163 -93 -164 0
163 93 -165 0
164 -27 -118 0
164 -96 -27 0
164 96 -118 0
165 -102 -118 0
165 -118 -166 0
165 102 -166 0
166 -105 -118 0
166 -118 -167 0
166 105 -167 0
167 -108 -142 0
167 -142 -168 0
167 108 -168 0
168 -111 -169 0
168 -169 -27 0
168 111 -27 0
169 -113 -27 0
169 -27 -118 0
169 113 -118 0
17 18 0
170 -171 -172 0
170 -172 -183 0
170 171 -183 0
171 -23 -2 0
171 23 2 0
172 -173 -176 0
172 -28 -173 0
172 28 -176 0
173 -174 -176 0
173 -52 -174 0
173 52 -176 0
174 -175 -2 0
174 175 2 0
176 -174 -177 0
176 -25 -174 0
176 25 -177 0
177 -174 -178 0
177 -58 -174 0
177 58 -178 0
178 -179 -180 0
178 -70 -179 0
178 70 -180 0
179 -175 -76 0
179 175 76 0
18 -15 -2 0
18 15 2 0
180 -179 -181 0
180 -78 -179 0
180 78 -181 0
181 -179 -182 0
181 -83 -179 0
181 83 -182 0
182 -183 -184 0
182 -87 -183 0
182 87 -184 0
183 -175 -16 0
183 175 16 0
184 -185 -186 0
184 -93 -185 0
184 93 -186 0
185 -174 -179 0
185 -96 -174 0
185 96 -179 0
186 -102 -179 0
186 -179 -187 0
186 102 -187 0
187 -105 -179 0
187 -179 -188 0
187 105 -188 0
188 -108 -183 0
188 -183 -189 0
188 108 -189 0
189 -111 -190 0
189 -190 -174 0
189 111 -174 0
19 20 0
190 -113 -174 0
190 -174 -179 0
190 113 -179 0
191 -192 -194 0
191 -194 -195 0
191 192 -195 0
192 -122 0
192 -193 0
193 -19 0
193 -21 0
194 -171 -176 0
194 -176 -183 0
194 171 -183 0
195 -196 -201 0
195 -201 -202 0
195 196 -202 0
196 -125 0
196 -197 0
197 -19 0
197 -198 0
198 199 0
199 -23 -200 0
199 23 200 0
2 0
20 -15 -15 0
20 15 15 0
201 -171 -179 0
201 -179 -183 0
201 171 -183 0
202 -175 -203 0
202 175 203 0
21 22 0
22 -23 -23 0
22 23 23 0
24 -25 -27 0
24 -27 -116 0
24 25 -116 0
25 -26 -16 0
25 26 16 0
27 -28 -51 0
27 -51 -56 0
27 28 -56 0
28 -29 0
28 -48 0
29 -30 -39 0
29 -39 -46 0
29 30 -46 0
3 -170 -191 0
3 -4 -170 0
3 4 -191 0
30 -31 0
30 -35 0
31 32 0
32 -33 -34 0
32 33 34 0
35 36 0
36 -37 -38 0
36 37 38 0
39 -40 -43 0
39 -43 -45 0
39 40 -45 0
4 -24 0
4 -5 0
40 -41 -42 0
41 -37 -2 0
41 37 2 0
42 -33 -2 0
42 33 2 0
43 44 0
44 -26 -2 0
44 26 2 0
45 25 0
46 47 0
47 -26 -26 0
47 26 26 0
48 49 0
49 -50 -50 0
49 50 50 0
5 -21 0
5 -6 0
51 -52 -54 0
51 -54 -56 0
51 52 -56 0
52 -30 -53 0
52 -53 -25 0
52 30 -25 0
53 -16 -2 0
53 -40 -16 0
53 40 -2 0
54 55 0
55 -2 -2 0
55 2 2 0
56 -25 -54 0
56 -54 -57 0
56 25 -57 0
57 -54 -69 0
57 -58 -54 0
57 58 -69 0
58 -59 -67 0
59 -60 -65 0
6 -11 -19 0
6 -7 -11 0
6 7 -19 0
60 -61 -63 0
61 -62 -16 0
61 62 16 0
63 -64 -16 0
63 64 16 0
65 -66 -16 0
65 66 16 0
67 -68 -16 0
67 68 16 0
69 -70 -74 0
69 -74 -77 0
69 70 -77 0
7 8 0
70 -71 -67 0
71 -72 -65 0
72 -73 -63 0
73 -62 -2 0
73 62 2 0
74 75 0
75 -2 -76 0
75 2 76 0
77 -74 -82 0
77 -78 -74 0
77 78 -82 0
78 -79 -67 0
79 -80 -65 0
8 -9 -10 0
8 9 10 0
80 -61 -81 0
81 -64 -2 0
81 64 2 0
82 -74 -86 0
82 -83 -74 0
82 83 -86 0
83 -84 -67 0
84 -85 -65 0
85 -73 -81 0
86 -87 -90 0
86 -90 -92 0
86 87 -92 0
87 -88 -67 0
88 -60 -89 0
89 -66 -2 0
89 66 2 0
90 91 0
91 -2 -16 0
91 2 16 0
92 -93 -95 0
92 -95 -101 0
92 93 -101 0
93 -94 -67 0
94 -72 -89 0
95 -54 -74 0
95 -96 -54 0
95 96 -74 0
96 -97 -99 0
97 -98 -2 0
97 98 2 0
99 -100 -2 0
99 100 2 0
